(declare-fun and.i189.i_5_48 () (_ BitVec 64))
(declare-fun conv.i.i.i_5_61 () (_ BitVec 32))
(declare-fun i27.i207.i_5_60 () (_ BitVec 1))
(declare-fun tobool.not.i5.i.i_5_58 () (_ BitVec 1))
(declare-fun tobool.not.i.i200.i_5_54 () (_ BitVec 1))
(declare-fun and6.i.i.i2.i.i_5_56 () (_ BitVec 64))
(declare-fun and9.i.i_5_50 () (_ BitVec 64))
(declare-fun and6.i.i.i.i197.i_5_52 () (_ BitVec 64))
(declare-fun src_reg1.sroa.13.0.copyload_5_39 () (_ BitVec 64))
(declare-fun and8.i.i_5_49 () (_ BitVec 64))
(declare-fun or3.i.i_5_47 () (_ BitVec 64))
(declare-fun or.i188.i_5_46 () (_ BitVec 64))
(declare-fun src_reg1.sroa.3.0.copyload_5_38 () (_ BitVec 64))
(declare-fun i83.i_5_44 () (_ BitVec 64))
(declare-fun i85.i_5_45 () (_ BitVec 64))
(declare-fun dst_reg_5_3 () (_ BitVec 64))
(declare-fun dst_reg_5_2 () (_ BitVec 64))
(declare-fun tobool.not.i1.i.i_5_43 () (_ BitVec 1))
(declare-fun src_reg1.sroa.65.0.copyload_5_41 () (_ BitVec 32))
(declare-fun src_reg_5_29 () (_ BitVec 32))
(declare-fun src_reg1.sroa.42.0.copyload_5_40 () (_ BitVec 64))
(declare-fun src_reg_5_25 () (_ BitVec 64))
(declare-fun src_reg_5_21 () (_ BitVec 64))
(declare-fun src_reg_5_20 () (_ BitVec 64))
(declare-fun src_reg_5_35 () (_ BitVec 8))
(declare-fun src_reg_5_34 () (_ BitVec 32))
(declare-fun src_reg_5_33 () (_ BitVec 32))
(declare-fun src_reg_5_32 () (_ BitVec 32))
(declare-fun src_reg_5_31 () (_ BitVec 32))
(declare-fun src_reg_5_30 () (_ BitVec 32))
(declare-fun src_reg_5_28 () (_ BitVec 32))
(declare-fun src_reg_5_27 () (_ BitVec 32))
(declare-fun src_reg_5_26 () (_ BitVec 32))
(declare-fun src_reg_5_24 () (_ BitVec 64))
(declare-fun src_reg_5_23 () (_ BitVec 64))
(declare-fun src_reg_5_22 () (_ BitVec 64))
(declare-fun src_reg_5_19 () (_ BitVec 32))
(declare-fun src_reg_5_18 () (_ BitVec 32))
(declare-fun dst_reg_5_17 () (_ BitVec 8))
(declare-fun dst_reg_5_16 () (_ BitVec 32))
(declare-fun dst_reg_5_15 () (_ BitVec 32))
(declare-fun dst_reg_5_14 () (_ BitVec 32))
(declare-fun dst_reg_5_13 () (_ BitVec 32))
(declare-fun dst_reg_5_12 () (_ BitVec 32))
(declare-fun dst_reg_5_11 () (_ BitVec 32))
(declare-fun dst_reg_5_10 () (_ BitVec 32))
(declare-fun dst_reg_5_9 () (_ BitVec 32))
(declare-fun dst_reg_5_8 () (_ BitVec 32))
(declare-fun dst_reg_5_7 () (_ BitVec 64))
(declare-fun dst_reg_5_6 () (_ BitVec 64))
(declare-fun dst_reg_5_5 () (_ BitVec 64))
(declare-fun dst_reg_5_4 () (_ BitVec 64))
(declare-fun dst_reg_5_1 () (_ BitVec 32))
(declare-fun dst_reg_5_0 () (_ BitVec 32))
(declare-fun shr5.i.i.i.i.i.i.i_5_65 () (_ BitVec 64))
(declare-fun and.i.i.i.i.i.i_5_66 () (_ BitVec 64))
(declare-fun neg.i.i.i.i.i.i_5_63 () (_ BitVec 64))
(declare-fun cmp13.not.i.i_5_70 () (_ BitVec 1))
(declare-fun cond.i.i_5_69 () (_ BitVec 32))
(declare-fun i28.i215.i_5_67 () (_ BitVec 32))
(declare-fun cmp.i216.i_5_68 () (_ BitVec 1))
(declare-fun and.i.i.i.i.i251.i30_5_146 () (_ BitVec 64))
(declare-fun cond35.i.i.i.i_5_161 () (_ BitVec 64))
(declare-fun cond.i250.i_5_121 () (_ BitVec 64))
(declare-fun cmp31.i11.i.i.i_5_160 () (_ BitVec 1))
(declare-fun or8.i.i.i.i_5_157 () (_ BitVec 64))
(declare-fun cond14.i8.i.i.i_5_159 () (_ BitVec 64))
(declare-fun .cond.i.i_5_126 () (_ BitVec 64))
(declare-fun cmp10.i.i.i.i_5_158 () (_ BitVec 1))
(declare-fun i25.i232.i_5_114 () (_ BitVec 64))
(declare-fun and7.i.i.i.i_5_156 () (_ BitVec 64))
(declare-fun i22.i227.i_5_109 () (_ BitVec 64))
(declare-fun or.i5.i.i.i_5_152 () (_ BitVec 64))
(declare-fun cond.i7.i.i.i_5_154 () (_ BitVec 64))
(declare-fun ..i.i_5_124 () (_ BitVec 64))
(declare-fun cmp.i6.i.i.i_5_153 () (_ BitVec 1))
(declare-fun and.i4.i.i.i_5_151 () (_ BitVec 64))
(declare-fun conv29.i.i.i.i_5_147 () (_ BitVec 32))
(declare-fun cond36.i.i.i.i_5_149 () (_ BitVec 32))
(declare-fun i30.i.i.i.i_5_145 () (_ BitVec 32))
(declare-fun cmp31.i.i.i.i_5_148 () (_ BitVec 1))
(declare-fun dst_reg_5_84 () (_ BitVec 32))
(declare-fun conv17.i.i.i.i_5_142 () (_ BitVec 32))
(declare-fun cond24.i.i.i.i_5_144 () (_ BitVec 32))
(declare-fun i29.i.i.i.i_5_141 () (_ BitVec 32))
(declare-fun cmp19.i.i.i.i_5_143 () (_ BitVec 1))
(declare-fun dst_reg_5_83 () (_ BitVec 32))
(declare-fun conv7.i.i.i.i_5_138 () (_ BitVec 32))
(declare-fun cond14.i.i.i.i_5_140 () (_ BitVec 32))
(declare-fun i28.i.i.i.i_5_134 () (_ BitVec 32))
(declare-fun cmp9.i.i.i.i_5_139 () (_ BitVec 1))
(declare-fun or6.i.i.i.i_5_137 () (_ BitVec 64))
(declare-fun and5.i.i.i.i_5_136 () (_ BitVec 64))
(declare-fun dst_reg_5_82 () (_ BitVec 32))
(declare-fun conv.i.i3.i.i_5_131 () (_ BitVec 32))
(declare-fun cond.i.i.i.i_5_133 () (_ BitVec 32))
(declare-fun i27.i.i.i.i_5_127 () (_ BitVec 32))
(declare-fun cmp.i.i.i.i_5_132 () (_ BitVec 1))
(declare-fun or.i.i.i.i_5_130 () (_ BitVec 64))
(declare-fun and.i.i.i254.i_5_129 () (_ BitVec 64))
(declare-fun dst_reg_5_81 () (_ BitVec 32))
(declare-fun cmp12.not.i.i_5_122 () (_ BitVec 1))
(declare-fun i26.i248.i_5_119 () (_ BitVec 64))
(declare-fun cmp.i249.i_5_120 () (_ BitVec 1))
(declare-fun i24.i231.i_5_113 () (_ BitVec 1))
(declare-fun dst_reg_5_90 () (_ BitVec 8))
(declare-fun dst_reg_5_89 () (_ BitVec 32))
(declare-fun dst_reg_5_88 () (_ BitVec 32))
(declare-fun dst_reg_5_87 () (_ BitVec 32))
(declare-fun dst_reg_5_86 () (_ BitVec 32))
(declare-fun dst_reg_5_85 () (_ BitVec 32))
(declare-fun dst_reg_5_80 () (_ BitVec 64))
(declare-fun dst_reg_5_79 () (_ BitVec 64))
(declare-fun dst_reg_5_78 () (_ BitVec 64))
(declare-fun dst_reg_5_77 () (_ BitVec 64))
(declare-fun dst_reg_5_76 () (_ BitVec 64))
(declare-fun dst_reg_5_75 () (_ BitVec 64))
(declare-fun dst_reg_5_74 () (_ BitVec 32))
(declare-fun dst_reg_5_73 () (_ BitVec 32))
(declare-fun src_reg_5_108 () (_ BitVec 8))
(declare-fun src_reg_5_107 () (_ BitVec 32))
(declare-fun src_reg_5_106 () (_ BitVec 32))
(declare-fun src_reg_5_105 () (_ BitVec 32))
(declare-fun src_reg_5_104 () (_ BitVec 32))
(declare-fun src_reg_5_103 () (_ BitVec 32))
(declare-fun src_reg_5_102 () (_ BitVec 32))
(declare-fun src_reg_5_101 () (_ BitVec 32))
(declare-fun src_reg_5_100 () (_ BitVec 32))
(declare-fun src_reg_5_99 () (_ BitVec 32))
(declare-fun src_reg_5_98 () (_ BitVec 64))
(declare-fun src_reg_5_97 () (_ BitVec 64))
(declare-fun src_reg_5_96 () (_ BitVec 64))
(declare-fun src_reg_5_95 () (_ BitVec 64))
(declare-fun src_reg_5_94 () (_ BitVec 64))
(declare-fun src_reg_5_93 () (_ BitVec 64))
(declare-fun src_reg_5_92 () (_ BitVec 32))
(declare-fun src_reg_5_91 () (_ BitVec 32))
(declare-fun tobool.not.i1.i228.i_5_111 () (_ BitVec 1))
(declare-fun conv.i.i.i241.i_5_118 () (_ BitVec 32))
(declare-fun src_reg_5_233 () (_ BitVec 8))
(declare-fun src_reg_5_197 () (_ BitVec 8))
(declare-fun src_reg_5_232 () (_ BitVec 32))
(declare-fun src_reg_5_196 () (_ BitVec 32))
(declare-fun src_reg_5_231 () (_ BitVec 32))
(declare-fun src_reg_5_195 () (_ BitVec 32))
(declare-fun src_reg_5_230 () (_ BitVec 32))
(declare-fun src_reg_5_194 () (_ BitVec 32))
(declare-fun src_reg_5_229 () (_ BitVec 32))
(declare-fun src_reg_5_193 () (_ BitVec 32))
(declare-fun src_reg_5_228 () (_ BitVec 32))
(declare-fun src_reg_5_192 () (_ BitVec 32))
(declare-fun src_reg_5_227 () (_ BitVec 32))
(declare-fun src_reg_5_191 () (_ BitVec 32))
(declare-fun src_reg_5_226 () (_ BitVec 32))
(declare-fun src_reg_5_190 () (_ BitVec 32))
(declare-fun src_reg_5_225 () (_ BitVec 32))
(declare-fun src_reg_5_189 () (_ BitVec 32))
(declare-fun src_reg_5_224 () (_ BitVec 32))
(declare-fun src_reg_5_188 () (_ BitVec 32))
(declare-fun src_reg_5_223 () (_ BitVec 64))
(declare-fun src_reg_5_187 () (_ BitVec 64))
(declare-fun src_reg_5_222 () (_ BitVec 64))
(declare-fun src_reg_5_186 () (_ BitVec 64))
(declare-fun src_reg_5_221 () (_ BitVec 64))
(declare-fun src_reg_5_185 () (_ BitVec 64))
(declare-fun src_reg_5_220 () (_ BitVec 64))
(declare-fun src_reg_5_184 () (_ BitVec 64))
(declare-fun src_reg_5_219 () (_ BitVec 64))
(declare-fun src_reg_5_183 () (_ BitVec 64))
(declare-fun src_reg_5_218 () (_ BitVec 64))
(declare-fun src_reg_5_182 () (_ BitVec 64))
(declare-fun src_reg_5_217 () (_ BitVec 32))
(declare-fun src_reg_5_181 () (_ BitVec 32))
(declare-fun src_reg_5_216 () (_ BitVec 32))
(declare-fun src_reg_5_180 () (_ BitVec 32))
(declare-fun dst_reg_5_215 () (_ BitVec 8))
(declare-fun dst_reg_5_179 () (_ BitVec 8))
(declare-fun dst_reg_5_214 () (_ BitVec 32))
(declare-fun dst_reg_5_178 () (_ BitVec 32))
(declare-fun dst_reg_5_213 () (_ BitVec 32))
(declare-fun dst_reg_5_177 () (_ BitVec 32))
(declare-fun dst_reg_5_212 () (_ BitVec 32))
(declare-fun dst_reg_5_176 () (_ BitVec 32))
(declare-fun dst_reg_5_211 () (_ BitVec 32))
(declare-fun dst_reg_5_175 () (_ BitVec 32))
(declare-fun dst_reg_5_210 () (_ BitVec 32))
(declare-fun dst_reg_5_174 () (_ BitVec 32))
(declare-fun dst_reg_5_209 () (_ BitVec 32))
(declare-fun dst_reg_5_173 () (_ BitVec 32))
(declare-fun dst_reg_5_208 () (_ BitVec 32))
(declare-fun dst_reg_5_172 () (_ BitVec 32))
(declare-fun dst_reg_5_207 () (_ BitVec 32))
(declare-fun dst_reg_5_171 () (_ BitVec 32))
(declare-fun dst_reg_5_206 () (_ BitVec 32))
(declare-fun dst_reg_5_170 () (_ BitVec 32))
(declare-fun dst_reg_5_205 () (_ BitVec 64))
(declare-fun dst_reg_5_169 () (_ BitVec 64))
(declare-fun dst_reg_5_204 () (_ BitVec 64))
(declare-fun dst_reg_5_168 () (_ BitVec 64))
(declare-fun dst_reg_5_203 () (_ BitVec 64))
(declare-fun dst_reg_5_167 () (_ BitVec 64))
(declare-fun dst_reg_5_202 () (_ BitVec 64))
(declare-fun dst_reg_5_166 () (_ BitVec 64))
(declare-fun dst_reg_5_201 () (_ BitVec 64))
(declare-fun dst_reg_5_165 () (_ BitVec 64))
(declare-fun dst_reg_5_200 () (_ BitVec 64))
(declare-fun dst_reg_5_164 () (_ BitVec 64))
(declare-fun dst_reg_5_199 () (_ BitVec 32))
(declare-fun dst_reg_5_163 () (_ BitVec 32))
(declare-fun dst_reg_5_198 () (_ BitVec 32))
(declare-fun dst_reg_5_162 () (_ BitVec 32))
(assert (let ((a!1 (or (and (= cmp13.not.i.i_5_70 #b1) (= i27.i207.i_5_60 #b0))
               (and (= cmp13.not.i.i_5_70 #b0) (= i27.i207.i_5_60 #b0))
               (= i27.i207.i_5_60 #b1)))
      (a!5 (and (= dst_reg_5_76 i22.i227.i_5_109)
                (ite (= i22.i227.i_5_109 #x0000000000000000)
                     (= tobool.not.i1.i228.i_5_111 #b1)
                     (= tobool.not.i1.i228.i_5_111 #b0))
                (ite (= tobool.not.i1.i.i_5_43 #b1)
                     (= i24.i231.i_5_113 tobool.not.i1.i228.i_5_111)
                     (= i24.i231.i_5_113 #b0))
                (= dst_reg_5_75 i25.i232.i_5_114)
                (=> (= i27.i207.i_5_60 #b1)
                    (and (= #x00000001 src_reg_5_91)
                         (= src_reg_5_19 src_reg_5_92)
                         (= src_reg_5_20 src_reg_5_93)
                         (= src_reg_5_21 src_reg_5_94)
                         (= src_reg_5_22 src_reg_5_95)
                         (= src_reg_5_23 src_reg_5_96)
                         (= src_reg_5_24 src_reg_5_97)
                         (= src_reg_5_25 src_reg_5_98)
                         (= src_reg_5_26 src_reg_5_99)
                         (= src_reg_5_27 src_reg_5_100)
                         (= src_reg_5_28 src_reg_5_101)
                         (= src_reg_5_29 src_reg_5_102)
                         (= src_reg_5_30 src_reg_5_103)
                         (= src_reg_5_31 src_reg_5_104)
                         (= src_reg_5_32 src_reg_5_105)
                         (= src_reg_5_33 src_reg_5_106)
                         (= src_reg_5_34 src_reg_5_107)
                         (= src_reg_5_35 src_reg_5_108)
                         (= #x00000001 dst_reg_5_73)
                         (= dst_reg_5_1 dst_reg_5_74)
                         (= and.i189.i_5_48 dst_reg_5_75)
                         (= and.i.i.i.i.i.i_5_66 dst_reg_5_76)
                         (= dst_reg_5_4 dst_reg_5_77)
                         (= dst_reg_5_5 dst_reg_5_78)
                         (= dst_reg_5_6 dst_reg_5_79)
                         (= dst_reg_5_7 dst_reg_5_80)
                         (= conv.i.i.i_5_61 dst_reg_5_81)
                         (= conv.i.i.i_5_61 dst_reg_5_82)
                         (= conv.i.i.i_5_61 dst_reg_5_83)
                         (= conv.i.i.i_5_61 dst_reg_5_84)
                         (= dst_reg_5_12 dst_reg_5_85)
                         (= dst_reg_5_13 dst_reg_5_86)
                         (= dst_reg_5_14 dst_reg_5_87)
                         (= dst_reg_5_15 dst_reg_5_88)
                         (= dst_reg_5_16 dst_reg_5_89)
                         (= dst_reg_5_17 dst_reg_5_90)))
                (=> (and (= cmp13.not.i.i_5_70 #b1) (= i27.i207.i_5_60 #b0))
                    (and (= #x00000001 src_reg_5_91)
                         (= src_reg_5_19 src_reg_5_92)
                         (= src_reg_5_20 src_reg_5_93)
                         (= src_reg_5_21 src_reg_5_94)
                         (= src_reg_5_22 src_reg_5_95)
                         (= src_reg_5_23 src_reg_5_96)
                         (= src_reg_5_24 src_reg_5_97)
                         (= src_reg_5_25 src_reg_5_98)
                         (= src_reg_5_26 src_reg_5_99)
                         (= src_reg_5_27 src_reg_5_100)
                         (= src_reg_5_28 src_reg_5_101)
                         (= src_reg_5_29 src_reg_5_102)
                         (= src_reg_5_30 src_reg_5_103)
                         (= src_reg_5_31 src_reg_5_104)
                         (= src_reg_5_32 src_reg_5_105)
                         (= src_reg_5_33 src_reg_5_106)
                         (= src_reg_5_34 src_reg_5_107)
                         (= src_reg_5_35 src_reg_5_108)
                         (= #x00000001 dst_reg_5_73)
                         (= dst_reg_5_1 dst_reg_5_74)
                         (= and.i189.i_5_48 dst_reg_5_75)
                         (= and9.i.i_5_50 dst_reg_5_76)
                         (= dst_reg_5_4 dst_reg_5_77)
                         (= dst_reg_5_5 dst_reg_5_78)
                         (= dst_reg_5_6 dst_reg_5_79)
                         (= dst_reg_5_7 dst_reg_5_80)
                         (= #x80000000 dst_reg_5_81)
                         (= #x7fffffff dst_reg_5_82)
                         (= conv.i.i.i_5_61 dst_reg_5_83)
                         (= cond.i.i_5_69 dst_reg_5_84)
                         (= dst_reg_5_12 dst_reg_5_85)
                         (= dst_reg_5_13 dst_reg_5_86)
                         (= dst_reg_5_14 dst_reg_5_87)
                         (= dst_reg_5_15 dst_reg_5_88)
                         (= dst_reg_5_16 dst_reg_5_89)
                         (= dst_reg_5_17 dst_reg_5_90)))
                (=> (and (= cmp13.not.i.i_5_70 #b0) (= i27.i207.i_5_60 #b0))
                    (and (= #x00000001 src_reg_5_91)
                         (= src_reg_5_19 src_reg_5_92)
                         (= src_reg_5_20 src_reg_5_93)
                         (= src_reg_5_21 src_reg_5_94)
                         (= src_reg_5_22 src_reg_5_95)
                         (= src_reg_5_23 src_reg_5_96)
                         (= src_reg_5_24 src_reg_5_97)
                         (= src_reg_5_25 src_reg_5_98)
                         (= src_reg_5_26 src_reg_5_99)
                         (= src_reg_5_27 src_reg_5_100)
                         (= src_reg_5_28 src_reg_5_101)
                         (= src_reg_5_29 src_reg_5_102)
                         (= src_reg_5_30 src_reg_5_103)
                         (= src_reg_5_31 src_reg_5_104)
                         (= src_reg_5_32 src_reg_5_105)
                         (= src_reg_5_33 src_reg_5_106)
                         (= src_reg_5_34 src_reg_5_107)
                         (= src_reg_5_35 src_reg_5_108)
                         (= #x00000001 dst_reg_5_73)
                         (= dst_reg_5_1 dst_reg_5_74)
                         (= and.i189.i_5_48 dst_reg_5_75)
                         (= and9.i.i_5_50 dst_reg_5_76)
                         (= dst_reg_5_4 dst_reg_5_77)
                         (= dst_reg_5_5 dst_reg_5_78)
                         (= dst_reg_5_6 dst_reg_5_79)
                         (= dst_reg_5_7 dst_reg_5_80)
                         (= conv.i.i.i_5_61 dst_reg_5_81)
                         (= cond.i.i_5_69 dst_reg_5_82)
                         (= conv.i.i.i_5_61 dst_reg_5_83)
                         (= cond.i.i_5_69 dst_reg_5_84)
                         (= dst_reg_5_12 dst_reg_5_85)
                         (= dst_reg_5_13 dst_reg_5_86)
                         (= dst_reg_5_14 dst_reg_5_87)
                         (= dst_reg_5_15 dst_reg_5_88)
                         (= dst_reg_5_16 dst_reg_5_89)
                         (= dst_reg_5_17 dst_reg_5_90)))))
      (a!7 (=> (= i27.i207.i_5_60 #b0)
               (and (= dst_reg_5_11 i28.i215.i_5_67)
                    (ite (bvult i28.i215.i_5_67
                                src_reg1.sroa.65.0.copyload_5_41)
                         (= cmp.i216.i_5_68 #b1)
                         (= cmp.i216.i_5_68 #b0))
                    (ite (= cmp.i216.i_5_68 #b1)
                         (= cond.i.i_5_69 i28.i215.i_5_67)
                         (= cond.i.i_5_69 src_reg1.sroa.65.0.copyload_5_41))
                    (ite (bvslt cond.i.i_5_69 conv.i.i.i_5_61)
                         (= cmp13.not.i.i_5_70 #b1)
                         (= cmp13.not.i.i_5_70 #b0)))))
      (a!8 (=> (= i27.i207.i_5_60 #b1)
               (and (= neg.i.i.i.i.i.i_5_63
                       (bvand and.i189.i_5_48 #xffffffff00000000))
                    (= shr5.i.i.i.i.i.i.i_5_65
                       (bvxor neg.i.i.i.i.i.i_5_63 #xffffffff00000000))
                    (= and.i.i.i.i.i.i_5_66
                       (bvand shr5.i.i.i.i.i.i.i_5_65 and9.i.i_5_50))))))
(let ((a!2 (and (=> (and (= i24.i231.i_5_113 #b1) a!1)
                    (and (= src_reg_5_91 src_reg_5_180)
                         (= src_reg_5_92 src_reg_5_181)
                         (= src_reg_5_93 src_reg_5_182)
                         (= src_reg_5_94 src_reg_5_183)
                         (= src_reg_5_95 src_reg_5_184)
                         (= src_reg_5_96 src_reg_5_185)
                         (= src_reg_5_97 src_reg_5_186)
                         (= src_reg_5_98 src_reg_5_187)
                         (= src_reg_5_99 src_reg_5_188)
                         (= src_reg_5_100 src_reg_5_189)
                         (= src_reg_5_101 src_reg_5_190)
                         (= src_reg_5_102 src_reg_5_191)
                         (= src_reg_5_103 src_reg_5_192)
                         (= src_reg_5_104 src_reg_5_193)
                         (= src_reg_5_105 src_reg_5_194)
                         (= src_reg_5_106 src_reg_5_195)
                         (= src_reg_5_107 src_reg_5_196)
                         (= src_reg_5_108 src_reg_5_197)
                         (= dst_reg_5_73 dst_reg_5_162)
                         (= dst_reg_5_74 dst_reg_5_163)
                         (= dst_reg_5_75 dst_reg_5_164)
                         (= #x0000000000000000 dst_reg_5_165)
                         (= i25.i232.i_5_114 dst_reg_5_166)
                         (= i25.i232.i_5_114 dst_reg_5_167)
                         (= i25.i232.i_5_114 dst_reg_5_168)
                         (= i25.i232.i_5_114 dst_reg_5_169)
                         (= conv.i.i.i241.i_5_118 dst_reg_5_170)
                         (= conv.i.i.i241.i_5_118 dst_reg_5_171)
                         (= conv.i.i.i241.i_5_118 dst_reg_5_172)
                         (= conv.i.i.i241.i_5_118 dst_reg_5_173)
                         (= #x00000000 dst_reg_5_174)
                         (= #x00000000 dst_reg_5_175)
                         (= dst_reg_5_87 dst_reg_5_176)
                         (= dst_reg_5_88 dst_reg_5_177)
                         (= dst_reg_5_89 dst_reg_5_178)
                         (= dst_reg_5_90 dst_reg_5_179)))
                (=> (and (= i24.i231.i_5_113 #b0) a!1)
                    (and (= src_reg_5_91 src_reg_5_180)
                         (= src_reg_5_92 src_reg_5_181)
                         (= src_reg_5_93 src_reg_5_182)
                         (= src_reg_5_94 src_reg_5_183)
                         (= src_reg_5_95 src_reg_5_184)
                         (= src_reg_5_96 src_reg_5_185)
                         (= src_reg_5_97 src_reg_5_186)
                         (= src_reg_5_98 src_reg_5_187)
                         (= src_reg_5_99 src_reg_5_188)
                         (= src_reg_5_100 src_reg_5_189)
                         (= src_reg_5_101 src_reg_5_190)
                         (= src_reg_5_102 src_reg_5_191)
                         (= src_reg_5_103 src_reg_5_192)
                         (= src_reg_5_104 src_reg_5_193)
                         (= src_reg_5_105 src_reg_5_194)
                         (= src_reg_5_106 src_reg_5_195)
                         (= src_reg_5_107 src_reg_5_196)
                         (= src_reg_5_108 src_reg_5_197)
                         (= dst_reg_5_73 dst_reg_5_162)
                         (= dst_reg_5_74 dst_reg_5_163)
                         (= dst_reg_5_75 dst_reg_5_164)
                         (= dst_reg_5_76 dst_reg_5_165)
                         (= cond.i7.i.i.i_5_154 dst_reg_5_166)
                         (= cond14.i8.i.i.i_5_159 dst_reg_5_167)
                         (= i25.i232.i_5_114 dst_reg_5_168)
                         (= cond35.i.i.i.i_5_161 dst_reg_5_169)
                         (= cond.i.i.i.i_5_133 dst_reg_5_170)
                         (= cond14.i.i.i.i_5_140 dst_reg_5_171)
                         (= cond24.i.i.i.i_5_144 dst_reg_5_172)
                         (= cond36.i.i.i.i_5_149 dst_reg_5_173)
                         (= dst_reg_5_85 dst_reg_5_174)
                         (= dst_reg_5_86 dst_reg_5_175)
                         (= dst_reg_5_87 dst_reg_5_176)
                         (= dst_reg_5_88 dst_reg_5_177)
                         (= dst_reg_5_89 dst_reg_5_178)
                         (= dst_reg_5_90 dst_reg_5_179)))
                (= dst_reg_5_162 dst_reg_5_198)
                (= dst_reg_5_163 dst_reg_5_199)
                (= dst_reg_5_164 dst_reg_5_200)
                (= dst_reg_5_165 dst_reg_5_201)
                (= dst_reg_5_166 dst_reg_5_202)
                (= dst_reg_5_167 dst_reg_5_203)
                (= dst_reg_5_168 dst_reg_5_204)
                (= dst_reg_5_169 dst_reg_5_205)
                (= dst_reg_5_170 dst_reg_5_206)
                (= dst_reg_5_171 dst_reg_5_207)
                (= dst_reg_5_172 dst_reg_5_208)
                (= dst_reg_5_173 dst_reg_5_209)
                (= dst_reg_5_174 dst_reg_5_210)
                (= dst_reg_5_175 dst_reg_5_211)
                (= dst_reg_5_176 dst_reg_5_212)
                (= dst_reg_5_177 dst_reg_5_213)
                (= dst_reg_5_178 dst_reg_5_214)
                (= dst_reg_5_179 dst_reg_5_215)
                (= src_reg_5_180 src_reg_5_216)
                (= src_reg_5_181 src_reg_5_217)
                (= src_reg_5_182 src_reg_5_218)
                (= src_reg_5_183 src_reg_5_219)
                (= src_reg_5_184 src_reg_5_220)
                (= src_reg_5_185 src_reg_5_221)
                (= src_reg_5_186 src_reg_5_222)
                (= src_reg_5_187 src_reg_5_223)
                (= src_reg_5_188 src_reg_5_224)
                (= src_reg_5_189 src_reg_5_225)
                (= src_reg_5_190 src_reg_5_226)
                (= src_reg_5_191 src_reg_5_227)
                (= src_reg_5_192 src_reg_5_228)
                (= src_reg_5_193 src_reg_5_229)
                (= src_reg_5_194 src_reg_5_230)
                (= src_reg_5_195 src_reg_5_231)
                (= src_reg_5_196 src_reg_5_232)
                (= src_reg_5_197 src_reg_5_233)))
      (a!4 (=> (and (= i24.i231.i_5_113 #b1) a!1)
               (and (= conv.i.i.i241.i_5_118
                       ((_ extract 31 0) i25.i232.i_5_114)))))
      (a!6 (=> (and (= i24.i231.i_5_113 #b0) a!1)
               (and (= dst_reg_5_7 i26.i248.i_5_119)
                    (ite (bvult i26.i248.i_5_119
                                src_reg1.sroa.42.0.copyload_5_40)
                         (= cmp.i249.i_5_120 #b1)
                         (= cmp.i249.i_5_120 #b0))
                    (ite (= cmp.i249.i_5_120 #b1)
                         (= cond.i250.i_5_121 i26.i248.i_5_119)
                         (= cond.i250.i_5_121 src_reg1.sroa.42.0.copyload_5_40))
                    (ite (bvsgt i25.i232.i_5_114 cond.i250.i_5_121)
                         (= cmp12.not.i.i_5_122 #b1)
                         (= cmp12.not.i.i_5_122 #b0))
                    (ite (= cmp12.not.i.i_5_122 #b1)
                         (= ..i.i_5_124 #x8000000000000000)
                         (= ..i.i_5_124 i25.i232.i_5_114))
                    (ite (= cmp12.not.i.i_5_122 #b1)
                         (= .cond.i.i_5_126 #x7fffffffffffffff)
                         (= .cond.i.i_5_126 cond.i250.i_5_121))
                    (= dst_reg_5_81 i27.i.i.i.i_5_127)
                    (= and.i.i.i254.i_5_129
                       (bvand i22.i227.i_5_109 #x0000000080000000))
                    (= or.i.i.i.i_5_130
                       (bvor and.i.i.i254.i_5_129 i25.i232.i_5_114))
                    (= conv.i.i3.i.i_5_131 ((_ extract 31 0) or.i.i.i.i_5_130))
                    (ite (bvsgt i27.i.i.i.i_5_127 conv.i.i3.i.i_5_131)
                         (= cmp.i.i.i.i_5_132 #b1)
                         (= cmp.i.i.i.i_5_132 #b0))
                    (ite (= cmp.i.i.i.i_5_132 #b1)
                         (= cond.i.i.i.i_5_133 i27.i.i.i.i_5_127)
                         (= cond.i.i.i.i_5_133 conv.i.i3.i.i_5_131))
                    (= dst_reg_5_82 i28.i.i.i.i_5_134)
                    (= and5.i.i.i.i_5_136
                       (bvand i22.i227.i_5_109 #x000000007fffffff))
                    (= or6.i.i.i.i_5_137
                       (bvor and5.i.i.i.i_5_136 i25.i232.i_5_114))
                    (= conv7.i.i.i.i_5_138 ((_ extract 31 0) or6.i.i.i.i_5_137))
                    (ite (bvslt i28.i.i.i.i_5_134 conv7.i.i.i.i_5_138)
                         (= cmp9.i.i.i.i_5_139 #b1)
                         (= cmp9.i.i.i.i_5_139 #b0))
                    (ite (= cmp9.i.i.i.i_5_139 #b1)
                         (= cond14.i.i.i.i_5_140 i28.i.i.i.i_5_134)
                         (= cond14.i.i.i.i_5_140 conv7.i.i.i.i_5_138))
                    (= dst_reg_5_83 i29.i.i.i.i_5_141)
                    (= conv17.i.i.i.i_5_142 ((_ extract 31 0) i25.i232.i_5_114))
                    (ite (bvugt i29.i.i.i.i_5_141 conv17.i.i.i.i_5_142)
                         (= cmp19.i.i.i.i_5_143 #b1)
                         (= cmp19.i.i.i.i_5_143 #b0))
                    (ite (= cmp19.i.i.i.i_5_143 #b1)
                         (= cond24.i.i.i.i_5_144 i29.i.i.i.i_5_141)
                         (= cond24.i.i.i.i_5_144 conv17.i.i.i.i_5_142))
                    (= dst_reg_5_84 i30.i.i.i.i_5_145)
                    (= and.i.i.i.i.i251.i30_5_146
                       (bvor i25.i232.i_5_114 i22.i227.i_5_109))
                    (= conv29.i.i.i.i_5_147
                       ((_ extract 31 0) and.i.i.i.i.i251.i30_5_146))
                    (ite (bvult i30.i.i.i.i_5_145 conv29.i.i.i.i_5_147)
                         (= cmp31.i.i.i.i_5_148 #b1)
                         (= cmp31.i.i.i.i_5_148 #b0))
                    (ite (= cmp31.i.i.i.i_5_148 #b1)
                         (= cond36.i.i.i.i_5_149 i30.i.i.i.i_5_145)
                         (= cond36.i.i.i.i_5_149 conv29.i.i.i.i_5_147))
                    (= and.i4.i.i.i_5_151
                       (bvand i22.i227.i_5_109 #x8000000000000000))
                    (= or.i5.i.i.i_5_152
                       (bvor and.i4.i.i.i_5_151 i25.i232.i_5_114))
                    (ite (bvsgt ..i.i_5_124 or.i5.i.i.i_5_152)
                         (= cmp.i6.i.i.i_5_153 #b1)
                         (= cmp.i6.i.i.i_5_153 #b0))
                    (ite (= cmp.i6.i.i.i_5_153 #b1)
                         (= cond.i7.i.i.i_5_154 ..i.i_5_124)
                         (= cond.i7.i.i.i_5_154 or.i5.i.i.i_5_152))
                    (= and7.i.i.i.i_5_156
                       (bvand i22.i227.i_5_109 #x7fffffffffffffff))
                    (= or8.i.i.i.i_5_157
                       (bvor and7.i.i.i.i_5_156 i25.i232.i_5_114))
                    (ite (bvslt .cond.i.i_5_126 or8.i.i.i.i_5_157)
                         (= cmp10.i.i.i.i_5_158 #b1)
                         (= cmp10.i.i.i.i_5_158 #b0))
                    (ite (= cmp10.i.i.i.i_5_158 #b1)
                         (= cond14.i8.i.i.i_5_159 .cond.i.i_5_126)
                         (= cond14.i8.i.i.i_5_159 or8.i.i.i.i_5_157))
                    (ite (bvult cond.i250.i_5_121 and.i.i.i.i.i251.i30_5_146)
                         (= cmp31.i11.i.i.i_5_160 #b1)
                         (= cmp31.i11.i.i.i_5_160 #b0))
                    (ite (= cmp31.i11.i.i.i_5_160 #b1)
                         (= cond35.i.i.i.i_5_161 cond.i250.i_5_121)
                         (= cond35.i.i.i.i_5_161 and.i.i.i.i.i251.i30_5_146))))))
(let ((a!3 (=> (or (and (= i24.i231.i_5_113 #b0) a!1)
                   (and (= i24.i231.i_5_113 #b1) a!1))
               a!2)))
  (and a!3
       a!4
       (=> a!1 a!5)
       a!6
       a!7
       a!8
       (= dst_reg_5_0 dst_reg_5_0)
       (= dst_reg_5_1 dst_reg_5_1)
       (= dst_reg_5_2 dst_reg_5_2)
       (= dst_reg_5_3 dst_reg_5_3)
       (= dst_reg_5_4 dst_reg_5_4)
       (= dst_reg_5_5 dst_reg_5_5)
       (= dst_reg_5_6 dst_reg_5_6)
       (= dst_reg_5_7 dst_reg_5_7)
       (= dst_reg_5_8 dst_reg_5_8)
       (= dst_reg_5_9 dst_reg_5_9)
       (= dst_reg_5_10 dst_reg_5_10)
       (= dst_reg_5_11 dst_reg_5_11)
       (= dst_reg_5_12 dst_reg_5_12)
       (= dst_reg_5_13 dst_reg_5_13)
       (= dst_reg_5_14 dst_reg_5_14)
       (= dst_reg_5_15 dst_reg_5_15)
       (= dst_reg_5_16 dst_reg_5_16)
       (= dst_reg_5_17 dst_reg_5_17)
       (= src_reg_5_18 src_reg_5_18)
       (= src_reg_5_19 src_reg_5_19)
       (= src_reg_5_20 src_reg_5_20)
       (= src_reg_5_21 src_reg_5_21)
       (= src_reg_5_22 src_reg_5_22)
       (= src_reg_5_23 src_reg_5_23)
       (= src_reg_5_24 src_reg_5_24)
       (= src_reg_5_25 src_reg_5_25)
       (= src_reg_5_26 src_reg_5_26)
       (= src_reg_5_27 src_reg_5_27)
       (= src_reg_5_28 src_reg_5_28)
       (= src_reg_5_29 src_reg_5_29)
       (= src_reg_5_30 src_reg_5_30)
       (= src_reg_5_31 src_reg_5_31)
       (= src_reg_5_32 src_reg_5_32)
       (= src_reg_5_33 src_reg_5_33)
       (= src_reg_5_34 src_reg_5_34)
       (= src_reg_5_35 src_reg_5_35)
       (= src_reg_5_20 src_reg1.sroa.3.0.copyload_5_38)
       (= src_reg_5_21 src_reg1.sroa.13.0.copyload_5_39)
       (= src_reg_5_25 src_reg1.sroa.42.0.copyload_5_40)
       (= src_reg_5_29 src_reg1.sroa.65.0.copyload_5_41)
       (ite (= src_reg1.sroa.13.0.copyload_5_39 #x0000000000000000)
            (= tobool.not.i1.i.i_5_43 #b1)
            (= tobool.not.i1.i.i_5_43 #b0))
       (= dst_reg_5_2 i83.i_5_44)
       (= dst_reg_5_3 i85.i_5_45)
       (= or.i188.i_5_46 (bvor i85.i_5_45 i83.i_5_44))
       (= or3.i.i_5_47
          (bvor src_reg1.sroa.13.0.copyload_5_39
                src_reg1.sroa.3.0.copyload_5_38))
       (= and.i189.i_5_48 (bvand i83.i_5_44 src_reg1.sroa.3.0.copyload_5_38))
       (= and8.i.i_5_49 (bvand or.i188.i_5_46 or3.i.i_5_47))
       (= and9.i.i_5_50 (bvxor and8.i.i_5_49 and.i189.i_5_48))
       (= and6.i.i.i.i197.i_5_52
          (bvand src_reg1.sroa.13.0.copyload_5_39 #x00000000ffffffff))
       (ite (= and6.i.i.i.i197.i_5_52 #x0000000000000000)
            (= tobool.not.i.i200.i_5_54 #b1)
            (= tobool.not.i.i200.i_5_54 #b0))
       (= and6.i.i.i2.i.i_5_56 (bvand and9.i.i_5_50 #x00000000ffffffff))
       (ite (= and6.i.i.i2.i.i_5_56 #x0000000000000000)
            (= tobool.not.i5.i.i_5_58 #b1)
            (= tobool.not.i5.i.i_5_58 #b0))
       (ite (= tobool.not.i.i200.i_5_54 #b1)
            (= i27.i207.i_5_60 tobool.not.i5.i.i_5_58)
            (= i27.i207.i_5_60 #b0))
       (= conv.i.i.i_5_61 ((_ extract 31 0) and.i189.i_5_48)))))))

;{"dst_reg":["dst_reg_5_0","dst_reg_5_1",[""],["dst_reg_5_2","dst_reg_5_3"],"dst_reg_5_4","dst_reg_5_5","dst_reg_5_6","dst_reg_5_7","dst_reg_5_8","dst_reg_5_9","dst_reg_5_10","dst_reg_5_11","dst_reg_5_12","dst_reg_5_13","","","dst_reg_5_14","dst_reg_5_15","dst_reg_5_16"],"src_reg":["src_reg_5_18","src_reg_5_19",[""],["src_reg_5_20","src_reg_5_21"],"src_reg_5_22","src_reg_5_23","src_reg_5_24","src_reg_5_25","src_reg_5_26","src_reg_5_27","src_reg_5_28","src_reg_5_29","src_reg_5_30","src_reg_5_31","","","src_reg_5_32","src_reg_5_33","src_reg_5_34"]}
;{"dst_reg":["dst_reg_5_198","dst_reg_5_199",[""],["dst_reg_5_200","dst_reg_5_201"],"dst_reg_5_202","dst_reg_5_203","dst_reg_5_204","dst_reg_5_205","dst_reg_5_206","dst_reg_5_207","dst_reg_5_208","dst_reg_5_209","dst_reg_5_210","dst_reg_5_211","","","dst_reg_5_212","dst_reg_5_213","dst_reg_5_214"],"src_reg":["src_reg_5_216","src_reg_5_217",[""],["src_reg_5_218","src_reg_5_219"],"src_reg_5_220","src_reg_5_221","src_reg_5_222","src_reg_5_223","src_reg_5_224","src_reg_5_225","src_reg_5_226","src_reg_5_227","src_reg_5_228","src_reg_5_229","","","src_reg_5_230","src_reg_5_231","src_reg_5_232"]}
